400
1000
699
699
698
698
698
697
691
691
691
690
689
688
682
681
680
677
677
675
675
671
671
670
667
664
662
661
660
660
660
659
659
658
657
656
653
652
651
651
646
646
646
644
643
640
640
639
639
637
635
633
631
629
627
626
626
625
624
624
624
620
620
618
613
613
612
612
609
607
602
602
601
599
595
594
593
593
592
592
589
585
582
579
578
574
574
573
572
571
570
570
566
561
561
561
558
558
557
557
554
554
554
551
550
549
548
541
538
536
534
534
532
529
529
522
519
516
515
514
512
507
505
505
500
500
500
499
498
493
492
491
488
487
487
486
486
480
478
478
475
469
468
466
466
465
465
463
463
463
458
454
454
450
449
449
447
445
445
443
443
443
441
441
436
434
433
433
432
429
428
428
427
427
427
424
423
419
418
418
414
413
412
411
411
411
410
409
407
406
406
406
405
405
403
402
402
402
399
398
398
397
396
396
395
393
393
391
389
389
386
384
383
381
380
378
377
373
371
369
368
364
364
363
362
360
359
358
356
354
349
346
342
340
336
335
334
330
327
327
327
325
325
318
316
315
314
314
310
308
304
304
299
297
296
296
295
295
294
292
291
290
289
284
281
280
279
277
277
276
275
272
272
271
270
268
262
262
260
258
257
255
253
252
252
249
249
249
248
247
244
243
242
242
241
240
239
239
235
235
235
235
234
233
232
229
229
228
228
228
228
224
224
224
223
221
220
219
219
218
218
218
214
212
212
211
210
209
208
208
205
203
199
196
196
188
187
185
183
180
180
180
178
178
177
176
176
175
175
170
169
169
168
167
167
167
167
166
165
165
164
161
157
156
155
155
154
148
148
147
146
145
142
140
139
138
138
134
133
133
132
131
130
129
128
128
127
123
121
115
115
112
111
111
110
108
108
107
107
104
100
100
